(define-fun c5 ((s S)) Bool 
	(match s (
		((s_con0 a)
		 (match a (
    ((a_con0 a_b1) (match a_b1 (
    ((b_con0 a_b1_d0 a_b1_d1) (and (> a_b1_d1 a_b1_d1) (and (> a_b1_d1 a_b1_d0) (and (> a_b1_d0 a_b1_d1) (and (> a_b1_d0 a_b1_d0) true)))))
  ))) 
  
  ((a_con0 a_b0) (match a_b0 (
    ((b_con0 a_b0_d0 a_b0_d1) (and (> a_b0_d1 a_b0_d1) (and (> a_b0_d1 a_b0_d0) (and (> a_b0_d0 a_b0_d1) (> a_b0_d0 a_b0_d0)))))
  )))
  ))
  
  )
	))
)